rcpsp/heur_output_or_constraints/Log=1/heurj60.txt
encoding rcpsp/j60.sm/j6013_7.sm nv: 1017920 nc: 2069239 enctime: 16.06
encoding rcpsp/j60.sm/j6013_7.sm nv: 295833 nc: 599868 enctime: 3.61
c File: j6013_7.smnaiveor1.wcnf
c timeout
c final solution cost: 91
c CPU time: 62.074224
s UNKNOWN

c File: j6013_7.smor1.wcnf
c timeout
c CPU time: 60.437294
s UNKNOWN


rcpsp/heur_output_or_constraints/Log=1/heurj60.txt
encoding rcpsp/j60.sm/j6013_8.sm nv: 912870 nc: 1877511 enctime: 15.22
encoding rcpsp/j60.sm/j6013_8.sm nv: 346626 nc: 711425 enctime: 4.29
c File: j6013_8.smnaiveor1.wcnf
c timeout
c final solution cost: 124
c CPU time: 62.046644
s UNKNOWN

c File: j6013_8.smor1.wcnf
c timeout
c final solution cost: 125
c CPU time: 60.696254
s UNKNOWN


rcpsp/heur_output_or_constraints/Log=1/heurj60.txt
encoding rcpsp/j60.sm/j6013_9.sm nv: 1068200 nc: 2183891 enctime: 17.78
encoding rcpsp/j60.sm/j6013_9.sm nv: 350980 nc: 715846 enctime: 4.33
c File: j6013_9.smnaiveor1.wcnf
c timeout
c final solution cost: 111
c CPU time: 62.332527
s UNKNOWN

c File: j6013_9.smor1.wcnf
c timeout
c final solution cost: 104
c CPU time: 60.638069
s UNKNOWN


rcpsp/heur_output_or_constraints/Log=1/heurj60.txt
encoding rcpsp/j60.sm/j601_3.sm nv: 117607 nc: 286410 enctime: 3.62
encoding rcpsp/j60.sm/j601_3.sm nv: 19663 nc: 46170 enctime: 0.22
c File: j601_3.smnaiveor1.wcnf
c optimal
c final solution cost: 47
c CPU time: 2.019765
s OPTIMUM FOUND

c File: j601_3.smor1.wcnf
c optimal
c final solution cost: 47
c CPU time: 0.209343
s OPTIMUM FOUND


rcpsp/heur_output_or_constraints/Log=1/heurj60.txt
encoding rcpsp/j60.sm/j6014_10.sm nv: 1792296 nc: 3626517 enctime: 27.98
encoding rcpsp/j60.sm/j6014_10.sm nv: 351714 nc: 709473 enctime: 4.71
c File: j6014_10.smnaiveor1.wcnf
c timeout
c final solution cost: 67
c CPU time: 63.385247
s UNKNOWN

c File: j6014_10.smor1.wcnf
c timeout
c final solution cost: 67
c CPU time: 60.574336
s UNKNOWN


rcpsp/heur_output_or_constraints/Log=1/heurj60.txt
encoding rcpsp/j60.sm/j6014_1.sm nv: 1890108 nc: 3796123 enctime: 28.59
encoding rcpsp/j60.sm/j6014_1.sm nv: 340560 nc: 682012 enctime: 4.39
c File: j6014_1.smnaiveor1.wcnf
c timeout
c final solution cost: 55
c CPU time: 63.299351
s UNKNOWN

c File: j6014_1.smor1.wcnf
c timeout
c final solution cost: 55
c CPU time: 60.548957
s UNKNOWN


rcpsp/heur_output_or_constraints/Log=1/heurj60.txt
encoding rcpsp/j60.sm/j6014_2.sm nv: 1766688 nc: 3552841 enctime: 26.71
encoding rcpsp/j60.sm/j6014_2.sm nv: 336512 nc: 674809 enctime: 4.28
c File: j6014_2.smnaiveor1.wcnf
c timeout
c final solution cost: 59
c CPU time: 63.163494
s UNKNOWN

c File: j6014_2.smor1.wcnf
c timeout
c final solution cost: 59
c CPU time: 60.532455
s UNKNOWN


rcpsp/heur_output_or_constraints/Log=1/heurj60.txt
encoding rcpsp/j60.sm/j6014_3.sm nv: 1549664 nc: 3113351 enctime: 22.70
encoding rcpsp/j60.sm/j6014_3.sm nv: 299144 nc: 599306 enctime: 3.73
c File: j6014_3.smnaiveor1.wcnf
c timeout
c final solution cost: 132
c CPU time: 62.716623
s UNKNOWN

c File: j6014_3.smor1.wcnf
c timeout
c final solution cost: 58
c CPU time: 60.482726
s UNKNOWN


rcpsp/heur_output_or_constraints/Log=1/heurj60.txt
encoding rcpsp/j60.sm/j6014_4.sm nv: 1708927 nc: 3444851 enctime: 25.04
encoding rcpsp/j60.sm/j6014_4.sm nv: 334686 nc: 672792 enctime: 4.17
c File: j6014_4.smnaiveor1.wcnf
c timeout
c final solution cost: 62
c CPU time: 63.047205
s UNKNOWN

c File: j6014_4.smor1.wcnf
c timeout
c final solution cost: 61
c CPU time: 60.517222
s UNKNOWN


rcpsp/heur_output_or_constraints/Log=1/heurj60.txt
encoding rcpsp/j60.sm/j6014_5.sm nv: 1606629 nc: 3223086 enctime: 22.88
encoding rcpsp/j60.sm/j6014_5.sm nv: 287448 nc: 574958 enctime: 3.55
c File: j6014_5.smnaiveor1.wcnf
c timeout
c final solution cost: 56
c CPU time: 62.803735
s UNKNOWN

c File: j6014_5.smor1.wcnf
c timeout
c CPU time: 60.370992
s UNKNOWN


rcpsp/heur_output_or_constraints/Log=1/heurj60.txt
encoding rcpsp/j60.sm/j6014_6.sm nv: 1610280 nc: 3234517 enctime: 22.42
encoding rcpsp/j60.sm/j6014_6.sm nv: 311832 nc: 624667 enctime: 4.41
c File: j6014_6.smnaiveor1.wcnf
c timeout
c final solution cost: 56
c CPU time: 62.755487
s UNKNOWN

c File: j6014_6.smor1.wcnf
c timeout
c final solution cost: 56
c CPU time: 60.486652
s UNKNOWN


rcpsp/heur_output_or_constraints/Log=1/heurj60.txt
encoding rcpsp/j60.sm/j6014_7.sm nv: 1460552 nc: 2940497 enctime: 20.72
encoding rcpsp/j60.sm/j6014_7.sm nv: 291186 nc: 584561 enctime: 3.48
c File: j6014_7.smnaiveor1.wcnf
c timeout
c final solution cost: 61
c CPU time: 62.594537
s UNKNOWN

c File: j6014_7.smor1.wcnf
c timeout
c final solution cost: 61
c CPU time: 60.478316
s UNKNOWN


rcpsp/heur_output_or_constraints/Log=1/heurj60.txt
encoding rcpsp/j60.sm/j6014_8.sm nv: 1281312 nc: 2576045 enctime: 18.16
encoding rcpsp/j60.sm/j6014_8.sm nv: 284736 nc: 571021 enctime: 3.39
c File: j6014_8.smnaiveor1.wcnf
c timeout
c final solution cost: 60
c CPU time: 62.238689
s UNKNOWN

c File: j6014_8.smor1.wcnf
c timeout
c final solution cost: 61
c CPU time: 60.456492
s UNKNOWN


rcpsp/heur_output_or_constraints/Log=1/heurj60.txt
encoding rcpsp/j60.sm/j6014_9.sm nv: 1557051 nc: 3126659 enctime: 21.89
encoding rcpsp/j60.sm/j6014_9.sm nv: 287223 nc: 575159 enctime: 3.47
c File: j6014_9.smnaiveor1.wcnf
c timeout
c CPU time: 62.390645
s UNKNOWN

c File: j6014_9.smor1.wcnf
c timeout
c final solution cost: 54
c CPU time: 60.463990
s UNKNOWN


rcpsp/heur_output_or_constraints/Log=1/heurj60.txt
encoding rcpsp/j60.sm/j601_4.sm nv: 124150 nc: 302363 enctime: 3.58
encoding rcpsp/j60.sm/j601_4.sm nv: 26358 nc: 62491 enctime: 0.43
c File: j601_4.smnaiveor1.wcnf
c timeout
c final solution cost: 67
c CPU time: 60.771892
s UNKNOWN

c File: j601_4.smor1.wcnf
c timeout
c final solution cost: 67
c CPU time: 60.063221
s UNKNOWN


rcpsp/heur_output_or_constraints/Log=1/heurj60.txt
encoding rcpsp/j60.sm/j6015_10.sm nv: 2039275 nc: 4074533 enctime: 28.01
encoding rcpsp/j60.sm/j6015_10.sm nv: 291325 nc: 580439 enctime: 4.62
c File: j6015_10.smnaiveor1.wcnf
c timeout
c final solution cost: 39
c CPU time: 63.562400
s UNKNOWN

c File: j6015_10.smor1.wcnf
c timeout
c final solution cost: 39
c CPU time: 60.487443
s UNKNOWN


rcpsp/heur_output_or_constraints/Log=1/heurj60.txt
encoding rcpsp/j60.sm/j6015_1.sm nv: 2067620 nc: 4148037 enctime: 31.21
encoding rcpsp/j60.sm/j6015_1.sm nv: 370320 nc: 741062 enctime: 4.79
c File: j6015_1.smnaiveor1.wcnf
c optimal
c final solution cost: 59
c CPU time: 5.727587
s OPTIMUM FOUND

c File: j6015_1.smor1.wcnf
c optimal
c final solution cost: 59
c CPU time: 0.919149
s OPTIMUM FOUND


rcpsp/heur_output_or_constraints/Log=1/heurj60.txt
encoding rcpsp/j60.sm/j6015_2.sm nv: 1727200 nc: 3479153 enctime: 26.78
encoding rcpsp/j60.sm/j6015_2.sm nv: 345440 nc: 693873 enctime: 4.43
c File: j6015_2.smnaiveor1.wcnf
c timeout
c final solution cost: 62
c CPU time: 63.246437
s UNKNOWN

c File: j6015_2.smor1.wcnf
c timeout
c final solution cost: 62
c CPU time: 60.562362
s UNKNOWN


rcpsp/heur_output_or_constraints/Log=1/heurj60.txt
encoding rcpsp/j60.sm/j6015_3.sm nv: 2432304 nc: 4868753 enctime: 36.37
encoding rcpsp/j60.sm/j6015_3.sm nv: 341376 nc: 681311 enctime: 4.90
c File: j6015_3.smnaiveor1.wcnf
c timeout
c CPU time: 63.938864
s UNKNOWN

c File: j6015_3.smor1.wcnf
c timeout
c final solution cost: 43
c CPU time: 60.547719
s UNKNOWN


rcpsp/heur_output_or_constraints/Log=1/heurj60.txt
encoding rcpsp/j60.sm/j6015_4.sm nv: 2218194 nc: 4461021 enctime: 34.51
encoding rcpsp/j60.sm/j6015_4.sm nv: 332136 nc: 665691 enctime: 4.47
c File: j6015_4.smnaiveor1.wcnf
c timeout
c CPU time: 63.790821
s UNKNOWN

c File: j6015_4.smor1.wcnf
c timeout
c CPU time: 60.453396
s UNKNOWN


rcpsp/heur_output_or_constraints/Log=1/heurj60.txt
encoding rcpsp/j60.sm/j6015_5.sm nv: 2133460 nc: 4282729 enctime: 32.96
encoding rcpsp/j60.sm/j6015_5.sm nv: 360760 nc: 722224 enctime: 4.85
c File: j6015_5.smnaiveor1.wcnf
c timeout
c CPU time: 63.627280
s UNKNOWN

c File: j6015_5.smor1.wcnf
c timeout
c final solution cost: 53
c CPU time: 60.590597
s UNKNOWN


rcpsp/heur_output_or_constraints/Log=1/heurj60.txt
encoding rcpsp/j60.sm/j6015_6.sm nv: 1857708 nc: 3730511 enctime: 30.07
encoding rcpsp/j60.sm/j6015_6.sm nv: 311472 nc: 623583 enctime: 4.39
c File: j6015_6.smnaiveor1.wcnf
c timeout
c final solution cost: 53
c CPU time: 63.511152
s UNKNOWN

c File: j6015_6.smor1.wcnf
c timeout
c final solution cost: 52
c CPU time: 60.547707
s UNKNOWN


rcpsp/heur_output_or_constraints/Log=1/heurj60.txt
encoding rcpsp/j60.sm/j6015_7.sm nv: 2288234 nc: 4576229 enctime: 37.78
encoding rcpsp/j60.sm/j6015_7.sm nv: 390507 nc: 779113 enctime: 5.30
c File: j6015_7.smnaiveor1.wcnf
c timeout
c final solution cost: 52
c CPU time: 64.216425
s UNKNOWN

c File: j6015_7.smor1.wcnf
c timeout
c final solution cost: 51
c CPU time: 60.614889
s UNKNOWN


rcpsp/heur_output_or_constraints/Log=1/heurj60.txt
encoding rcpsp/j60.sm/j6015_8.sm nv: 2220508 nc: 4464933 enctime: 35.50
encoding rcpsp/j60.sm/j6015_8.sm nv: 355772 nc: 713269 enctime: 4.94
c File: j6015_8.smnaiveor1.wcnf
c timeout
c final solution cost: 51
c CPU time: 64.209739
s UNKNOWN

c File: j6015_8.smor1.wcnf
c timeout
c final solution cost: 51
c CPU time: 60.581967
s UNKNOWN


rcpsp/heur_output_or_constraints/Log=1/heurj60.txt
encoding rcpsp/j60.sm/j6015_9.sm nv: 3013429 nc: 6022161 enctime: 47.72
encoding rcpsp/j60.sm/j6015_9.sm nv: 397550 nc: 792048 enctime: 4.27
c File: j6015_9.smnaiveor1.wcnf
c timeout
c final solution cost: 44
c CPU time: 65.348500
s UNKNOWN

c File: j6015_9.smor1.wcnf
c timeout
c final solution cost: 44
c CPU time: 60.632402
s UNKNOWN


rcpsp/heur_output_or_constraints/Log=1/heurj60.txt
encoding rcpsp/j60.sm/j601_5.sm nv: 118656 nc: 283147 enctime: 3.44
encoding rcpsp/j60.sm/j601_5.sm nv: 23424 nc: 54243 enctime: 0.25
c File: j601_5.smnaiveor1.wcnf
c optimal
c final solution cost: 56
c CPU time: 2.124375
s OPTIMUM FOUND

c File: j601_5.smor1.wcnf
c optimal
c final solution cost: 56
c CPU time: 0.337420
s OPTIMUM FOUND


rcpsp/heur_output_or_constraints/Log=1/heurj60.txt
encoding rcpsp/j60.sm/j6016_10.sm nv: 2712843 nc: 5424628 enctime: 40.87
encoding rcpsp/j60.sm/j6016_10.sm nv: 349554 nc: 696806 enctime: 4.92
c File: j6016_10.smnaiveor1.wcnf
c optimal
c final solution cost: 41
c CPU time: 54.605867
s OPTIMUM FOUND

c File: j6016_10.smor1.wcnf
c optimal
c final solution cost: 41
c CPU time: 4.685374
s OPTIMUM FOUND


rcpsp/heur_output_or_constraints/Log=1/heurj60.txt
encoding rcpsp/j60.sm/j6016_1.sm nv: 3239832 nc: 6473399 enctime: 48.35
encoding rcpsp/j60.sm/j6016_1.sm nv: 407192 nc: 811319 enctime: 5.71
c File: j6016_1.smnaiveor1.wcnf
c optimal
c final solution cost: 44
c CPU time: 8.395621
s OPTIMUM FOUND

c File: j6016_1.smor1.wcnf
c optimal
c final solution cost: 44
c CPU time: 1.370761
s OPTIMUM FOUND


rcpsp/heur_output_or_constraints/Log=1/heurj60.txt
encoding rcpsp/j60.sm/j6016_2.sm nv: 3284064 nc: 6539659 enctime: 48.01
encoding rcpsp/j60.sm/j6016_2.sm nv: 420282 nc: 834949 enctime: 5.95
c File: j6016_2.smnaiveor1.wcnf
c optimal
c final solution cost: 42
c CPU time: 7.597359
s OPTIMUM FOUND

c File: j6016_2.smor1.wcnf
c optimal
c final solution cost: 42
c CPU time: 0.803915
s OPTIMUM FOUND


rcpsp/heur_output_or_constraints/Log=1/heurj60.txt
encoding rcpsp/j60.sm/j6016_3.sm nv: 2856396 nc: 5683187 enctime: 41.86
encoding rcpsp/j60.sm/j6016_3.sm nv: 314296 nc: 623462 enctime: 4.59
c File: j6016_3.smnaiveor1.wcnf
c optimal
c final solution cost: 33
c CPU time: 18.629846
s OPTIMUM FOUND

c File: j6016_3.smor1.wcnf
c optimal
c final solution cost: 33
c CPU time: 0.788719
s OPTIMUM FOUND


rcpsp/heur_output_or_constraints/Log=1/heurj60.txt
encoding rcpsp/j60.sm/j6016_4.sm nv: 2570356 nc: 5124216 enctime: 38.66
encoding rcpsp/j60.sm/j6016_4.sm nv: 344904 nc: 685778 enctime: 4.92
c File: j6016_4.smnaiveor1.wcnf
c optimal
c final solution cost: 38
c CPU time: 6.762622
s OPTIMUM FOUND

c File: j6016_4.smor1.wcnf
c optimal
c final solution cost: 38
c CPU time: 1.119575
s OPTIMUM FOUND


rcpsp/heur_output_or_constraints/Log=1/heurj60.txt
encoding rcpsp/j60.sm/j6016_5.sm nv: 2998710 nc: 5971737 enctime: 44.93
encoding rcpsp/j60.sm/j6016_5.sm nv: 354393 nc: 703764 enctime: 3.79
c File: j6016_5.smnaiveor1.wcnf
c optimal
c final solution cost: 36
c CPU time: 7.777779
s OPTIMUM FOUND

c File: j6016_5.smor1.wcnf
c optimal
c final solution cost: 36
c CPU time: 1.562341
s OPTIMUM FOUND


rcpsp/heur_output_or_constraints/Log=1/heurj60.txt
encoding rcpsp/j60.sm/j6016_6.sm nv: 2978536 nc: 5952673 enctime: 45.22
encoding rcpsp/j60.sm/j6016_6.sm nv: 394944 nc: 787059 enctime: 5.62
c File: j6016_6.smnaiveor1.wcnf
c timeout
c final solution cost: 41
c CPU time: 65.221276
s UNKNOWN

c File: j6016_6.smor1.wcnf
c timeout
c final solution cost: 42
c CPU time: 60.636286
s UNKNOWN


rcpsp/heur_output_or_constraints/Log=1/heurj60.txt
encoding rcpsp/j60.sm/j6016_7.sm nv: 1893492 nc: 3786621 enctime: 29.06
encoding rcpsp/j60.sm/j6016_7.sm nv: 336762 nc: 671936 enctime: 4.53
c File: j6016_7.smnaiveor1.wcnf
c optimal
c final solution cost: 49
c CPU time: 45.464111
s OPTIMUM FOUND

c File: j6016_7.smor1.wcnf
c optimal
c final solution cost: 49
c CPU time: 4.633855
s OPTIMUM FOUND


rcpsp/heur_output_or_constraints/Log=1/heurj60.txt
encoding rcpsp/j60.sm/j6016_8.sm nv: 2924757 nc: 5837945 enctime: 45.15
encoding rcpsp/j60.sm/j6016_8.sm nv: 377388 nc: 751226 enctime: 4.06
c File: j6016_8.smnaiveor1.wcnf
c optimal
c final solution cost: 41
c CPU time: 7.489107
s OPTIMUM FOUND

c File: j6016_8.smor1.wcnf
c optimal
c final solution cost: 41
c CPU time: 1.106098
s OPTIMUM FOUND


rcpsp/heur_output_or_constraints/Log=1/heurj60.txt
encoding rcpsp/j60.sm/j6016_9.sm nv: 2741508 nc: 5457997 enctime: 41.33
encoding rcpsp/j60.sm/j6016_9.sm nv: 366102 nc: 726994 enctime: 5.08
c File: j6016_9.smnaiveor1.wcnf
c optimal
c final solution cost: 42
c CPU time: 7.455491
s OPTIMUM FOUND

c File: j6016_9.smor1.wcnf
c optimal
c final solution cost: 42
c CPU time: 0.759725
s OPTIMUM FOUND


rcpsp/heur_output_or_constraints/Log=1/heurj60.txt
encoding rcpsp/j60.sm/j601_6.sm nv: 107811 nc: 255884 enctime: 3.07
encoding rcpsp/j60.sm/j601_6.sm nv: 23232 nc: 53640 enctime: 0.40
c File: j601_6.smnaiveor1.wcnf
c optimal
c final solution cost: 61
c CPU time: 6.620342
s OPTIMUM FOUND

c File: j601_6.smor1.wcnf
c optimal
c final solution cost: 61
c CPU time: 2.377447
s OPTIMUM FOUND


rcpsp/heur_output_or_constraints/Log=1/heurj60.txt
encoding rcpsp/j60.sm/j6017_10.sm nv: 150745 nc: 375869 enctime: 5.23
encoding rcpsp/j60.sm/j6017_10.sm nv: 27671 nc: 66843 enctime: 0.31
c File: j6017_10.smnaiveor1.wcnf
c optimal
c final solution cost: 57
c CPU time: 5.115311
s OPTIMUM FOUND

c File: j6017_10.smor1.wcnf
c optimal
c final solution cost: 57
c CPU time: 1.850890
s OPTIMUM FOUND


rcpsp/heur_output_or_constraints/Log=1/heurj60.txt
encoding rcpsp/j60.sm/j6017_1.sm nv: 113982 nc: 276807 enctime: 3.62
encoding rcpsp/j60.sm/j6017_1.sm nv: 25773 nc: 61023 enctime: 0.46
c File: j6017_1.smnaiveor1.wcnf
c timeout
c final solution cost: 70
c CPU time: 60.872108
s UNKNOWN

c File: j6017_1.smor1.wcnf
c timeout
c final solution cost: 70
c CPU time: 60.072591
s UNKNOWN


rcpsp/heur_output_or_constraints/Log=1/heurj60.txt
encoding rcpsp/j60.sm/j6017_2.sm nv: 114138 nc: 275031 enctime: 3.48
encoding rcpsp/j60.sm/j6017_2.sm nv: 25737 nc: 60546 enctime: 0.46
c File: j6017_2.smnaiveor1.wcnf
c timeout
c final solution cost: 57
c CPU time: 60.804167
s UNKNOWN

c File: j6017_2.smor1.wcnf
c timeout
c final solution cost: 57
c CPU time: 60.068747
s UNKNOWN


